c description: Random 3-CNF over 14 variables and 59 clauses
c generator: CNFgen (0.9.2)
c copyright: (C) 2012-2022 Massimo Lauria <massimo.lauria@uniroma1.it>
c url: https://massimolauria.net/cnfgen
c command line: cnfgen --output CNF_4.28/14_bit_59_632.cnf randkcnf 3 14 59
c
p cnf 14 59
-1 -4 -6 0
-4 8 13 0
-1 -7 -12 0
1 13 14 0
2 -7 9 0
9 -10 -11 0
7 -9 -10 0
-6 10 12 0
5 9 11 0
-7 8 -12 0
-8 9 14 0
11 -13 14 0
4 8 14 0
-6 12 13 0
4 5 -13 0
5 11 12 0
2 8 10 0
4 8 12 0
3 -6 -10 0
1 -10 -13 0
-5 12 -14 0
4 11 -12 0
-6 -9 14 0
3 7 13 0
1 -3 5 0
5 -10 -12 0
9 -10 -12 0
8 -10 -13 0
2 4 -7 0
7 -8 -10 0
1 -9 -10 0
-1 3 -10 0
-3 -4 11 0
-4 -8 13 0
-7 -11 12 0
5 -6 14 0
5 -8 -12 0
-7 -9 -11 0
-12 13 -14 0
-1 -8 -9 0
-3 4 8 0
-3 7 -8 0
7 -10 13 0
-4 -8 10 0
-4 -9 -11 0
-4 5 12 0
-7 -10 14 0
-7 -11 -13 0
-3 7 9 0
3 7 14 0
-4 8 -10 0
7 -8 -9 0
-9 10 -11 0
-3 -7 -8 0
-3 7 8 0
-1 -7 14 0
-5 6 10 0
5 -6 -8 0
-2 -7 10 0
